p edges 30 288
e 1 2
e 1 4
e 1 5
e 1 6
e 1 7
e 1 10
e 1 12
e 1 13
e 1 14
e 1 15
e 1 17
e 1 19
e 1 21
e 1 23
e 1 25
e 1 27
e 1 29
e 2 3
e 2 4
e 2 5
e 2 6
e 2 7
e 2 9
e 2 10
e 2 11
e 2 12
e 2 13
e 2 14
e 2 15
e 2 16
e 2 17
e 2 18
e 2 19
e 2 21
e 2 22
e 2 23
e 2 24
e 2 25
e 2 27
e 2 28
e 2 29
e 2 30
e 3 6
e 3 7
e 3 8
e 3 16
e 3 19
e 3 20
e 3 22
e 3 26
e 3 27
e 3 28
e 3 29
e 3 30
e 4 5
e 4 6
e 4 7
e 4 10
e 4 11
e 4 12
e 4 13
e 4 14
e 4 15
e 4 17
e 4 18
e 4 19
e 4 21
e 4 23
e 4 25
e 4 27
e 4 29
e 5 6
e 5 7
e 5 9
e 5 10
e 5 11
e 5 12
e 5 13
e 5 14
e 5 15
e 5 17
e 5 18
e 5 19
e 5 21
e 5 22
e 5 23
e 5 24
e 5 25
e 5 27
e 5 29
e 6 7
e 6 8
e 6 9
e 6 10
e 6 11
e 6 12
e 6 13
e 6 14
e 6 15
e 6 16
e 6 17
e 6 18
e 6 19
e 6 20
e 6 21
e 6 22
e 6 23
e 6 24
e 6 25
e 6 26
e 6 27
e 6 28
e 6 29
e 6 30
e 7 8
e 7 10
e 7 11
e 7 12
e 7 13
e 7 14
e 7 16
e 7 17
e 7 18
e 7 19
e 7 20
e 7 21
e 7 22
e 7 23
e 7 24
e 7 26
e 7 27
e 7 28
e 7 29
e 7 30
e 8 16
e 8 19
e 8 20
e 8 22
e 8 26
e 8 27
e 8 28
e 8 29
e 8 30
e 9 10
e 9 11
e 9 12
e 9 13
e 9 14
e 9 15
e 9 18
e 9 22
e 9 23
e 9 24
e 9 27
e 9 29
e 10 11
e 10 12
e 10 13
e 10 14
e 10 15
e 10 17
e 10 18
e 10 19
e 10 21
e 10 22
e 10 23
e 10 24
e 10 25
e 10 27
e 10 29
e 11 12
e 11 13
e 11 14
e 11 15
e 11 18
e 11 19
e 11 22
e 11 23
e 11 24
e 11 25
e 11 27
e 11 29
e 12 13
e 12 14
e 12 15
e 12 17
e 12 18
e 12 19
e 12 21
e 12 22
e 12 23
e 12 24
e 12 25
e 12 27
e 12 29
e 13 14
e 13 17
e 13 18
e 13 19
e 13 22
e 13 23
e 13 24
e 13 27
e 13 29
e 14 15
e 14 17
e 14 18
e 14 19
e 14 21
e 14 22
e 14 23
e 14 24
e 14 25
e 14 27
e 14 29
e 15 17
e 15 18
e 15 21
e 15 23
e 15 24
e 15 25
e 15 27
e 15 29
e 16 19
e 16 20
e 16 22
e 16 26
e 16 27
e 16 28
e 16 29
e 16 30
e 17 19
e 17 21
e 17 23
e 17 25
e 17 27
e 17 29
e 18 19
e 18 21
e 18 22
e 18 23
e 18 24
e 18 25
e 18 27
e 18 29
e 19 20
e 19 21
e 19 22
e 19 23
e 19 24
e 19 26
e 19 27
e 19 28
e 19 29
e 19 30
e 20 22
e 20 26
e 20 27
e 20 28
e 20 29
e 20 30
e 21 23
e 21 25
e 21 27
e 21 29
e 22 23
e 22 24
e 22 26
e 22 28
e 22 29
e 22 30
e 23 24
e 23 25
e 23 27
e 23 29
e 24 27
e 24 29
e 25 27
e 26 27
e 26 28
e 26 29
e 26 30
e 27 28
e 27 29
e 27 30
e 28 29
e 28 30
e 29 30
w 1 46
w 2 4
w 3 63
w 4 11
w 5 87
w 6 181
w 7 36
w 8 253
w 9 295
w 10 41
w 11 41
w 12 41
w 13 143
w 14 41
w 15 98
w 16 68
w 17 175
w 18 41
w 19 100
w 20 63
w 21 76
w 22 354
w 23 41
w 24 36
w 25 550
w 26 100
w 27 267
w 28 349
w 29 36
w 30 63
n 1 x83
n 2 x91
n 3 x92
n 4 x130
n 5 x197
n 6 x304
n 7 x333
n 8 x536
n 9 x580
n 10 x1007
n 11 x1435
n 12 x1443
n 13 x1722
n 14 x1743
n 15 x1770
n 16 x1994
n 17 x2144
n 18 x2170
n 19 x2230
n 20 x2315
n 21 x2326
n 22 x2552
n 23 x2803
n 24 x2805
n 25 x2892
n 26 x2968
n 27 x3311
n 28 x3328
n 29 x3367
n 30 x3532
o 1 83
o 2 91
o 3 92
o 4 130
o 5 197
o 6 304
o 7 333
o 8 536
o 9 580
o 10 1007
o 11 1435
o 12 1443
o 13 1722
o 14 1743
o 15 1770
o 16 1994
o 17 2144
o 18 2170
o 19 2230
o 20 2315
o 21 2326
o 22 2552
o 23 2803
o 24 2805
o 25 2892
o 26 2968
o 27 3311
o 28 3328
o 29 3367
o 30 3532
